c Optimal Cost: 1680
p wcnf 40 146 201
84 1 22 0
84 -1 -22 0
84 1 23 0
84 -1 -23 0
84 1 24 0
84 -1 -24 0
84 1 26 0
84 -1 -26 0
100 1 -31 0
100 -1 31 0
100 1 -34 0
100 -1 34 0
200 1 -40 0
200 -1 40 0
84 2 -23 0
84 -2 23 0
84 2 -29 0
84 -2 29 0
84 2 -30 0
84 -2 30 0
100 2 31 0
100 -2 -31 0
100 2 33 0
100 -2 -33 0
100 2 39 0
100 -2 -39 0
84 3 -22 0
84 -3 22 0
84 3 -25 0
84 -3 25 0
84 3 -28 0
84 -3 28 0
100 3 32 0
100 -3 -32 0
200 3 35 0
200 -3 -35 0
84 5 -23 0
84 -5 23 0
84 5 -30 0
84 -5 30 0
100 5 32 0
100 -5 -32 0
100 5 34 0
100 -5 -34 0
84 6 -24 0
84 -6 24 0
168 6 -29 0
168 -6 29 0
84 6 -30 0
84 -6 30 0
100 6 34 0
100 -6 -34 0
100 6 36 0
100 -6 -36 0
100 6 38 0
100 -6 -38 0
100 6 39 0
100 -6 -39 0
168 8 25 0
168 -8 -25 0
84 8 27 0
84 -8 -27 0
100 8 -35 0
100 -8 35 0
100 8 -38 0
100 -8 38 0
100 8 -39 0
100 -8 39 0
84 10 -29 0
84 -10 29 0
100 10 37 0
100 -10 -37 0
100 12 23 0
100 -12 -23 0
200 12 25 0
200 -12 -25 0
100 12 26 0
100 -12 -26 0
200 12 29 0
200 -12 -29 0
100 12 32 0
100 -12 -32 0
100 12 34 0
100 -12 -34 0
200 12 35 0
200 -12 -35 0
100 12 37 0
100 -12 -37 0
100 12 39 0
100 -12 -39 0
100 14 30 0
100 -14 -30 0
100 14 34 0
100 -14 -34 0
100 16 -23 0
100 -16 23 0
100 16 -24 0
100 -16 24 0
100 16 -31 0
100 -16 31 0
100 16 -40 0
100 -16 40 0
100 17 -22 0
100 -17 22 0
100 17 -23 0
100 -17 23 0
100 17 -25 0
100 -17 25 0
100 17 -27 0
100 -17 27 0
100 17 -28 0
100 -17 28 0
100 17 -29 0
100 -17 29 0
100 17 -32 0
100 -17 32 0
100 17 -33 0
100 -17 33 0
100 17 -35 0
100 -17 35 0
100 17 -38 0
100 -17 38 0
100 17 -39 0
100 -17 39 0
100 17 -40 0
100 -17 40 0
100 18 -30 0
100 -18 30 0
100 18 -36 0
100 -18 36 0
100 19 -22 0
100 -19 22 0
100 19 -29 0
100 -19 29 0
100 19 -31 0
100 -19 31 0
100 19 -34 0
100 -19 34 0
100 20 -24 0
100 -20 24 0
100 20 -30 0
100 -20 30 0
100 20 -38 0
100 -20 38 0
100 20 -39 0
100 -20 39 0
